c description: Tseitin formula on , with odd charge
c generator: CNFgen (0.9.0)
c copyright: (C) 2012-2020 Massimo Lauria <massimo.lauria@uniroma1.it>
c url: https://massimolauria.net/cnfgen
c
p cnf 20 155
1 2 3 0
1 -2 -3 0
-1 2 -3 0
-1 -2 3 0
1 4 5 6 7 -8 0
1 4 5 6 -7 8 0
1 4 5 -6 7 8 0
1 4 5 -6 -7 -8 0
1 4 -5 6 7 8 0
1 4 -5 6 -7 -8 0
1 4 -5 -6 7 -8 0
1 4 -5 -6 -7 8 0
1 -4 5 6 7 8 0
1 -4 5 6 -7 -8 0
1 -4 5 -6 7 -8 0
1 -4 5 -6 -7 8 0
1 -4 -5 6 7 -8 0
1 -4 -5 6 -7 8 0
1 -4 -5 -6 7 8 0
1 -4 -5 -6 -7 -8 0
-1 4 5 6 7 8 0
-1 4 5 6 -7 -8 0
-1 4 5 -6 7 -8 0
-1 4 5 -6 -7 8 0
-1 4 -5 6 7 -8 0
-1 4 -5 6 -7 8 0
-1 4 -5 -6 7 8 0
-1 4 -5 -6 -7 -8 0
-1 -4 5 6 7 -8 0
-1 -4 5 6 -7 8 0
-1 -4 5 -6 7 8 0
-1 -4 5 -6 -7 -8 0
-1 -4 -5 6 7 8 0
-1 -4 -5 6 -7 -8 0
-1 -4 -5 -6 7 -8 0
-1 -4 -5 -6 -7 8 0
2 4 9 10 -11 0
2 4 9 -10 11 0
2 4 -9 10 11 0
2 4 -9 -10 -11 0
2 -4 9 10 11 0
2 -4 9 -10 -11 0
2 -4 -9 10 -11 0
2 -4 -9 -10 11 0
-2 4 9 10 11 0
-2 4 9 -10 -11 0
-2 4 -9 10 -11 0
-2 4 -9 -10 11 0
-2 -4 9 10 -11 0
-2 -4 9 -10 11 0
-2 -4 -9 10 11 0
-2 -4 -9 -10 -11 0
12 -13 0
-12 13 0
9 14 -15 0
9 -14 15 0
-9 14 15 0
-9 -14 -15 0
-16 0
3 5 10 12 14 16 -17 0
3 5 10 12 14 -16 17 0
3 5 10 12 -14 16 17 0
3 5 10 12 -14 -16 -17 0
3 5 10 -12 14 16 17 0
3 5 10 -12 14 -16 -17 0
3 5 10 -12 -14 16 -17 0
3 5 10 -12 -14 -16 17 0
3 5 -10 12 14 16 17 0
3 5 -10 12 14 -16 -17 0
3 5 -10 12 -14 16 -17 0
3 5 -10 12 -14 -16 17 0
3 5 -10 -12 14 16 -17 0
3 5 -10 -12 14 -16 17 0
3 5 -10 -12 -14 16 17 0
3 5 -10 -12 -14 -16 -17 0
3 -5 10 12 14 16 17 0
3 -5 10 12 14 -16 -17 0
3 -5 10 12 -14 16 -17 0
3 -5 10 12 -14 -16 17 0
3 -5 10 -12 14 16 -17 0
3 -5 10 -12 14 -16 17 0
3 -5 10 -12 -14 16 17 0
3 -5 10 -12 -14 -16 -17 0
3 -5 -10 12 14 16 -17 0
3 -5 -10 12 14 -16 17 0
3 -5 -10 12 -14 16 17 0
3 -5 -10 12 -14 -16 -17 0
3 -5 -10 -12 14 16 17 0
3 -5 -10 -12 14 -16 -17 0
3 -5 -10 -12 -14 16 -17 0
3 -5 -10 -12 -14 -16 17 0
-3 5 10 12 14 16 17 0
-3 5 10 12 14 -16 -17 0
-3 5 10 12 -14 16 -17 0
-3 5 10 12 -14 -16 17 0
-3 5 10 -12 14 16 -17 0
-3 5 10 -12 14 -16 17 0
-3 5 10 -12 -14 16 17 0
-3 5 10 -12 -14 -16 -17 0
-3 5 -10 12 14 16 -17 0
-3 5 -10 12 14 -16 17 0
-3 5 -10 12 -14 16 17 0
-3 5 -10 12 -14 -16 -17 0
-3 5 -10 -12 14 16 17 0
-3 5 -10 -12 14 -16 -17 0
-3 5 -10 -12 -14 16 -17 0
-3 5 -10 -12 -14 -16 17 0
-3 -5 10 12 14 16 -17 0
-3 -5 10 12 14 -16 17 0
-3 -5 10 12 -14 16 17 0
-3 -5 10 12 -14 -16 -17 0
-3 -5 10 -12 14 16 17 0
-3 -5 10 -12 14 -16 -17 0
-3 -5 10 -12 -14 16 -17 0
-3 -5 10 -12 -14 -16 17 0
-3 -5 -10 12 14 16 17 0
-3 -5 -10 12 14 -16 -17 0
-3 -5 -10 12 -14 16 -17 0
-3 -5 -10 12 -14 -16 17 0
-3 -5 -10 -12 14 16 -17 0
-3 -5 -10 -12 14 -16 17 0
-3 -5 -10 -12 -14 16 17 0
-3 -5 -10 -12 -14 -16 -17 0
6 17 18 -19 0
6 17 -18 19 0
6 -17 18 19 0
6 -17 -18 -19 0
-6 17 18 19 0
-6 17 -18 -19 0
-6 -17 18 -19 0
-6 -17 -18 19 0
7 13 18 -20 0
7 13 -18 20 0
7 -13 18 20 0
7 -13 -18 -20 0
-7 13 18 20 0
-7 13 -18 -20 0
-7 -13 18 -20 0
-7 -13 -18 20 0
8 11 15 19 -20 0
8 11 15 -19 20 0
8 11 -15 19 20 0
8 11 -15 -19 -20 0
8 -11 15 19 20 0
8 -11 15 -19 -20 0
8 -11 -15 19 -20 0
8 -11 -15 -19 20 0
-8 11 15 19 20 0
-8 11 15 -19 -20 0
-8 11 -15 19 -20 0
-8 11 -15 -19 20 0
-8 -11 15 19 -20 0
-8 -11 15 -19 20 0
-8 -11 -15 19 20 0
-8 -11 -15 -19 -20 0